(declare-fun temp802_2 () (_ BitVec 64))
(declare-fun temp802_1 () (_ BitVec 64))
(declare-fun temp802_3 () (_ BitVec 64))
(declare-fun var287753 () (_ BitVec 64))
(declare-fun temp802_5 () (_ BitVec 64))
(declare-fun temp802_4 () (_ BitVec 64))
(declare-fun temp802_6 () (_ BitVec 64))
(declare-fun var1117511 () (_ BitVec 64))
(declare-fun var1183058 () (_ BitVec 64))
(declare-fun temp802_8 () (_ BitVec 64))
(declare-fun temp802_7 () (_ BitVec 64))
(declare-fun temp802_9 () (_ BitVec 64))
(declare-fun var4197703 () (_ BitVec 64))
(declare-fun var4263250 () (_ BitVec 64))
(declare-fun temp802_11 () (_ BitVec 64))
(declare-fun temp802_10 () (_ BitVec 64))
(declare-fun temp802_13 () (_ BitVec 64))
(declare-fun temp802_12 () (_ BitVec 64))
(declare-fun temp802_14 () (_ BitVec 64))
(declare-fun var5508423 () (_ BitVec 64))
(declare-fun var5573970 () (_ BitVec 64))
(declare-fun temp802_16 () (_ BitVec 64))
(declare-fun temp802_15 () (_ BitVec 64))
(declare-fun temp802_17 () (_ BitVec 64))
(declare-fun var6692058 () (_ BitVec 64))
(declare-fun temp802_19 () (_ BitVec 64))
(declare-fun temp802_18 () (_ BitVec 64))
(declare-fun temp802_20 () (_ BitVec 64))
(declare-fun var7216700 () (_ BitVec 64))
(declare-fun temp802_21 () (_ BitVec 64))
(declare-fun var7282236 () (_ BitVec 64))
(assert (= temp802_2 #x0000000000000c77))
(assert (= temp802_1 temp802_2))
(assert (= temp802_3 #x0000000000000000))
(assert (= var287753 temp802_3))
(assert (= temp802_5 #x0000000000000000))
(assert (= temp802_4 temp802_5))
(assert (= temp802_6 #x0000000000000000))
(assert (= var1117511 temp802_6))
(assert (= var1183058 var1117511))
(assert (= temp802_8 #x0000000000000000))
(assert (= temp802_7 temp802_8))
(assert (= temp802_9 #x0000000000000000))
(assert (= var4197703 temp802_9))
(assert (= var4263250 var4197703))
(assert (= temp802_11 #x0000000000000001))
(assert (= temp802_10 temp802_11))
(assert (= temp802_13 #x0000000000000000))
(assert (= temp802_12 temp802_13))
(assert (= temp802_14 #x0000000000000000))
(assert (= var5508423 temp802_14))
(assert (= var5573970 var5508423))
(assert (= temp802_16 #xffffffffffffffff))
(assert (= temp802_15 temp802_16))
(assert (= temp802_17 #x0000000000000000))
(assert (= var6692058 temp802_17))
(assert (= temp802_19 #x0000000000000001))
(assert (= temp802_18 temp802_19))
(assert (= temp802_20 #x0000000000000000))
(assert (= var7216700 temp802_20))
(assert (= temp802_21 #x0000000000000001))
(assert (= var7282236 temp802_21))
(model-add temp802_2 () (_ BitVec 64) #x0000000000000c77)
(model-add temp802_1 () (_ BitVec 64) #x0000000000000c77)
(model-add temp802_3 () (_ BitVec 64) #x0000000000000000)
(model-add var287753 () (_ BitVec 64) #x0000000000000000)
(model-add temp802_5 () (_ BitVec 64) #x0000000000000000)
(model-add temp802_4 () (_ BitVec 64) #x0000000000000000)
(model-add temp802_6 () (_ BitVec 64) #x0000000000000000)
(model-add var1117511 () (_ BitVec 64) #x0000000000000000)
(model-add var1183058 () (_ BitVec 64) #x0000000000000000)
(model-add temp802_8 () (_ BitVec 64) #x0000000000000000)
(model-add temp802_7 () (_ BitVec 64) #x0000000000000000)
(model-add temp802_9 () (_ BitVec 64) #x0000000000000000)
(model-add var4197703 () (_ BitVec 64) #x0000000000000000)
(model-add var4263250 () (_ BitVec 64) #x0000000000000000)
(model-add temp802_11 () (_ BitVec 64) #x0000000000000001)
(model-add temp802_10 () (_ BitVec 64) #x0000000000000001)
(model-add temp802_13 () (_ BitVec 64) #x0000000000000000)
(model-add temp802_12 () (_ BitVec 64) #x0000000000000000)
(model-add temp802_14 () (_ BitVec 64) #x0000000000000000)
(model-add var5508423 () (_ BitVec 64) #x0000000000000000)
(model-add var5573970 () (_ BitVec 64) #x0000000000000000)
(model-add temp802_16 () (_ BitVec 64) #xffffffffffffffff)
(model-add temp802_15 () (_ BitVec 64) #xffffffffffffffff)
(model-add temp802_17 () (_ BitVec 64) #x0000000000000000)
(model-add var6692058 () (_ BitVec 64) #x0000000000000000)
(model-add temp802_19 () (_ BitVec 64) #x0000000000000001)
(model-add temp802_18 () (_ BitVec 64) #x0000000000000001)
(model-add temp802_20 () (_ BitVec 64) #x0000000000000000)
(model-add var7216700 () (_ BitVec 64) #x0000000000000000)
(model-add temp802_21 () (_ BitVec 64) #x0000000000000001)
(model-add var7282236 () (_ BitVec 64) #x0000000000000001)






